28 31 11 19 47 48 10 63 89 
94 92 37 91 40 53 26 21 13 97 
54 3 51 50 81 66 32 52 
73 72 75 23 67 56 74 80 58 
45 64 86 17 18 
33 34 76 6 95 96 5 61 93 
85 42 14 44 38 43 16 98 59 
1 2 57 41 68 29 12 
7 27 69 88 49 46 83 60 
82 30 84 90 20 
65 78 79 24 55 25 77 
36 99 87 71 
39 9 4 100 
62 8 35 70 
15 22 

